# Solution for model TOMinMax-R3D2T7F125Tmax175Iter1-Seed:4736952544028839442
# Objective value = 6.9831120913802263e+00
x[T0,T1,K0] 1
x[T0,T1,K1] 0
x[T0,T1,K2] 0
x[T0,T2,K0] 0
x[T0,T2,K1] 0
x[T0,T2,K2] 0
x[T0,T3,K0] 0
x[T0,T3,K1] 0
x[T0,T3,K2] 0
x[T0,T4,K0] 0
x[T0,T4,K1] 0
x[T0,T4,K2] 0
x[T0,T5,K0] 0
x[T0,T5,K1] 0
x[T0,T5,K2] 0
x[T0,T6,K0] 0
x[T0,T6,K1] 0
x[T0,T6,K2] 0
x[T0,D0,K0] 0
x[T0,D0,K1] 0
x[T0,D0,K2] 0
x[T0,D1,K0] 0
x[T0,D1,K1] 0
x[T0,D1,K2] 0
x[T0,S0,K0] 0
x[T0,S0,K1] 0
x[T0,S0,K2] 0
x[T0,E0,K0] 0
x[T0,E0,K1] 0
x[T0,E0,K2] 0
x[T1,T0,K0] 0
x[T1,T0,K1] 0
x[T1,T0,K2] 0
x[T1,T2,K0] 0
x[T1,T2,K1] 0
x[T1,T2,K2] 0
x[T1,T3,K0] 0
x[T1,T3,K1] 0
x[T1,T3,K2] 0
x[T1,T4,K0] 1
x[T1,T4,K1] 0
x[T1,T4,K2] 0
x[T1,T5,K0] 0
x[T1,T5,K1] 0
x[T1,T5,K2] 0
x[T1,T6,K0] 0
x[T1,T6,K1] 0
x[T1,T6,K2] 0
x[T1,D0,K0] 0
x[T1,D0,K1] 0
x[T1,D0,K2] 0
x[T1,D1,K0] 0
x[T1,D1,K1] 0
x[T1,D1,K2] 0
x[T1,S0,K0] 0
x[T1,S0,K1] 0
x[T1,S0,K2] 0
x[T1,E0,K0] 0
x[T1,E0,K1] 0
x[T1,E0,K2] 0
x[T2,T0,K0] 0
x[T2,T0,K1] 0
x[T2,T0,K2] 0
x[T2,T1,K0] 0
x[T2,T1,K1] 0
x[T2,T1,K2] 0
x[T2,T3,K0] 0
x[T2,T3,K1] 0
x[T2,T3,K2] 0
x[T2,T4,K0] 0
x[T2,T4,K1] 0
x[T2,T4,K2] 0
x[T2,T5,K0] 0
x[T2,T5,K1] 0
x[T2,T5,K2] 0
x[T2,T6,K0] 0
x[T2,T6,K1] 0
x[T2,T6,K2] 0
x[T2,D0,K0] 0
x[T2,D0,K1] 0
x[T2,D0,K2] 0
x[T2,D1,K0] 0
x[T2,D1,K1] 1
x[T2,D1,K2] 0
x[T2,S0,K0] 0
x[T2,S0,K1] 0
x[T2,S0,K2] 0
x[T2,E0,K0] 0
x[T2,E0,K1] 0
x[T2,E0,K2] 0
x[T3,T0,K0] 0
x[T3,T0,K1] 0
x[T3,T0,K2] 0
x[T3,T1,K0] 0
x[T3,T1,K1] 0
x[T3,T1,K2] 0
x[T3,T2,K0] 0
x[T3,T2,K1] 1
x[T3,T2,K2] 0
x[T3,T4,K0] 0
x[T3,T4,K1] 0
x[T3,T4,K2] 0
x[T3,T5,K0] 0
x[T3,T5,K1] 0
x[T3,T5,K2] 0
x[T3,T6,K0] 0
x[T3,T6,K1] 0
x[T3,T6,K2] 0
x[T3,D0,K0] 0
x[T3,D0,K1] 0
x[T3,D0,K2] 0
x[T3,D1,K0] 0
x[T3,D1,K1] 0
x[T3,D1,K2] 0
x[T3,S0,K0] 0
x[T3,S0,K1] 0
x[T3,S0,K2] 0
x[T3,E0,K0] 0
x[T3,E0,K1] 0
x[T3,E0,K2] 0
x[T4,T0,K0] 0
x[T4,T0,K1] 0
x[T4,T0,K2] 0
x[T4,T1,K0] 0
x[T4,T1,K1] 0
x[T4,T1,K2] 0
x[T4,T2,K0] 0
x[T4,T2,K1] 0
x[T4,T2,K2] 0
x[T4,T3,K0] 0
x[T4,T3,K1] 0
x[T4,T3,K2] 0
x[T4,T5,K0] 0
x[T4,T5,K1] 0
x[T4,T5,K2] 0
x[T4,T6,K0] 0
x[T4,T6,K1] 0
x[T4,T6,K2] 0
x[T4,D0,K0] 0
x[T4,D0,K1] 0
x[T4,D0,K2] 0
x[T4,D1,K0] 0
x[T4,D1,K1] 0
x[T4,D1,K2] 0
x[T4,S0,K0] 0
x[T4,S0,K1] 0
x[T4,S0,K2] 0
x[T4,E0,K0] 1
x[T4,E0,K1] 0
x[T4,E0,K2] 0
x[T5,T0,K0] 0
x[T5,T0,K1] 0
x[T5,T0,K2] 0
x[T5,T1,K0] 0
x[T5,T1,K1] 0
x[T5,T1,K2] 0
x[T5,T2,K0] 0
x[T5,T2,K1] 0
x[T5,T2,K2] 0
x[T5,T3,K0] 0
x[T5,T3,K1] 0
x[T5,T3,K2] 0
x[T5,T4,K0] 0
x[T5,T4,K1] 0
x[T5,T4,K2] 0
x[T5,T6,K0] 0
x[T5,T6,K1] 0
x[T5,T6,K2] 0
x[T5,D0,K0] 0
x[T5,D0,K1] 0
x[T5,D0,K2] 0
x[T5,D1,K0] 0
x[T5,D1,K1] 0
x[T5,D1,K2] 1
x[T5,S0,K0] 0
x[T5,S0,K1] 0
x[T5,S0,K2] 0
x[T5,E0,K0] 0
x[T5,E0,K1] 0
x[T5,E0,K2] 0
x[T6,T0,K0] 0
x[T6,T0,K1] 0
x[T6,T0,K2] 0
x[T6,T1,K0] 0
x[T6,T1,K1] 0
x[T6,T1,K2] 0
x[T6,T2,K0] 0
x[T6,T2,K1] 0
x[T6,T2,K2] 0
x[T6,T3,K0] 0
x[T6,T3,K1] 0
x[T6,T3,K2] 0
x[T6,T4,K0] 0
x[T6,T4,K1] 0
x[T6,T4,K2] 0
x[T6,T5,K0] 0
x[T6,T5,K1] 0
x[T6,T5,K2] 1
x[T6,D0,K0] 0
x[T6,D0,K1] 0
x[T6,D0,K2] 0
x[T6,D1,K0] 0
x[T6,D1,K1] 0
x[T6,D1,K2] 0
x[T6,S0,K0] 0
x[T6,S0,K1] 0
x[T6,S0,K2] 0
x[T6,E0,K0] 0
x[T6,E0,K1] 0
x[T6,E0,K2] 0
x[D0,T0,K0] 0
x[D0,T0,K1] 0
x[D0,T0,K2] 0
x[D0,T1,K0] 0
x[D0,T1,K1] 0
x[D0,T1,K2] 0
x[D0,T2,K0] 0
x[D0,T2,K1] 0
x[D0,T2,K2] 0
x[D0,T3,K0] 0
x[D0,T3,K1] 0
x[D0,T3,K2] 0
x[D0,T4,K0] 0
x[D0,T4,K1] 0
x[D0,T4,K2] 0
x[D0,T5,K0] 0
x[D0,T5,K1] 0
x[D0,T5,K2] 0
x[D0,T6,K0] 0
x[D0,T6,K1] 0
x[D0,T6,K2] 0
x[D0,D1,K0] 0
x[D0,D1,K1] 1
x[D0,D1,K2] 1
x[D0,S0,K0] 0
x[D0,S0,K1] 0
x[D0,S0,K2] 0
x[D0,E0,K0] 0
x[D0,E0,K1] 1
x[D0,E0,K2] 1
x[D1,T0,K0] 1
x[D1,T0,K1] 0
x[D1,T0,K2] 0
x[D1,T1,K0] 0
x[D1,T1,K1] 0
x[D1,T1,K2] 0
x[D1,T2,K0] 0
x[D1,T2,K1] 0
x[D1,T2,K2] 0
x[D1,T3,K0] 0
x[D1,T3,K1] 1
x[D1,T3,K2] 0
x[D1,T4,K0] 0
x[D1,T4,K1] 0
x[D1,T4,K2] 0
x[D1,T5,K0] 0
x[D1,T5,K1] 0
x[D1,T5,K2] 0
x[D1,T6,K0] 0
x[D1,T6,K1] 0
x[D1,T6,K2] 1
x[D1,D0,K0] 0
x[D1,D0,K1] 1
x[D1,D0,K2] 1
x[D1,S0,K0] 0
x[D1,S0,K1] 0
x[D1,S0,K2] 0
x[D1,E0,K0] 0
x[D1,E0,K1] 0
x[D1,E0,K2] 0
x[S0,T0,K0] 0
x[S0,T0,K1] 0
x[S0,T0,K2] 0
x[S0,T1,K0] 0
x[S0,T1,K1] 0
x[S0,T1,K2] 0
x[S0,T2,K0] 0
x[S0,T2,K1] 0
x[S0,T2,K2] 0
x[S0,T3,K0] 0
x[S0,T3,K1] 0
x[S0,T3,K2] 0
x[S0,T4,K0] 0
x[S0,T4,K1] 0
x[S0,T4,K2] 0
x[S0,T5,K0] 0
x[S0,T5,K1] 0
x[S0,T5,K2] 0
x[S0,T6,K0] 0
x[S0,T6,K1] 0
x[S0,T6,K2] 0
x[S0,D0,K0] 0
x[S0,D0,K1] 1
x[S0,D0,K2] 1
x[S0,D1,K0] 1
x[S0,D1,K1] 0
x[S0,D1,K2] 0
x[S0,E0,K0] 0
x[S0,E0,K1] 0
x[S0,E0,K2] 0
x[E0,T0,K0] 0
x[E0,T0,K1] 0
x[E0,T0,K2] 0
x[E0,T1,K0] 0
x[E0,T1,K1] 0
x[E0,T1,K2] 0
x[E0,T2,K0] 0
x[E0,T2,K1] 0
x[E0,T2,K2] 0
x[E0,T3,K0] 0
x[E0,T3,K1] 0
x[E0,T3,K2] 0
x[E0,T4,K0] 0
x[E0,T4,K1] 0
x[E0,T4,K2] 0
x[E0,T5,K0] 0
x[E0,T5,K1] 0
x[E0,T5,K2] 0
x[E0,T6,K0] 0
x[E0,T6,K1] 0
x[E0,T6,K2] 0
x[E0,D0,K0] 0
x[E0,D0,K1] 0
x[E0,D0,K2] 0
x[E0,D1,K0] 0
x[E0,D1,K1] 0
x[E0,D1,K2] 0
x[E0,S0,K0] 0
x[E0,S0,K1] 0
x[E0,S0,K2] 0
y[T0,K0] 1
y[T0,K1] 0
y[T0,K2] 0
y[T1,K0] 1
y[T1,K1] 0
y[T1,K2] 0
y[T2,K0] 0
y[T2,K1] 1
y[T2,K2] 0
y[T3,K0] 0
y[T3,K1] 1
y[T3,K2] 0
y[T4,K0] 1
y[T4,K1] 0
y[T4,K2] 0
y[T5,K0] 0
y[T5,K1] 0
y[T5,K2] 1
y[T6,K0] 0
y[T6,K1] 0
y[T6,K2] 1
r[T0] 9.0700066950870678e+01
r[T1] 8.6469648933736607e+01
r[T2] 6.1746259242179804e+01
r[T3] 7.0555782266543247e+01
r[T4] 5.9903342558303848e+01
r[T5] 6.4355400486383587e+01
r[T6] 1.0710294880613219e+02
p[T0,T1,K0] 2
p[T0,T1,K1] 0
p[T0,T1,K2] 0
p[T0,T2,K0] 0
p[T0,T2,K1] 0
p[T0,T2,K2] 0
p[T0,T3,K0] 0
p[T0,T3,K1] 0
p[T0,T3,K2] 0
p[T0,T4,K0] 0
p[T0,T4,K1] 0
p[T0,T4,K2] 0
p[T0,T5,K0] 0
p[T0,T5,K1] 0
p[T0,T5,K2] 0
p[T0,T6,K0] 0
p[T0,T6,K1] 0
p[T0,T6,K2] 0
p[T0,D0,K0] 0
p[T0,D0,K1] 0
p[T0,D0,K2] 0
p[T0,D1,K0] 0
p[T0,D1,K1] 0
p[T0,D1,K2] 0
p[T0,S0,K0] 0
p[T0,S0,K1] 0
p[T0,S0,K2] 0
p[T0,E0,K0] 0
p[T0,E0,K1] 0
p[T0,E0,K2] 0
p[T1,T0,K0] 0
p[T1,T0,K1] 0
p[T1,T0,K2] 0
p[T1,T2,K0] 0
p[T1,T2,K1] 0
p[T1,T2,K2] 0
p[T1,T3,K0] 0
p[T1,T3,K1] 0
p[T1,T3,K2] 0
p[T1,T4,K0] 1
p[T1,T4,K1] 0
p[T1,T4,K2] 0
p[T1,T5,K0] 0
p[T1,T5,K1] 0
p[T1,T5,K2] 0
p[T1,T6,K0] 0
p[T1,T6,K1] 0
p[T1,T6,K2] 0
p[T1,D0,K0] 0
p[T1,D0,K1] 0
p[T1,D0,K2] 0
p[T1,D1,K0] 0
p[T1,D1,K1] 0
p[T1,D1,K2] 0
p[T1,S0,K0] 0
p[T1,S0,K1] 0
p[T1,S0,K2] 0
p[T1,E0,K0] 0
p[T1,E0,K1] 0
p[T1,E0,K2] 0
p[T2,T0,K0] 0
p[T2,T0,K1] 0
p[T2,T0,K2] 0
p[T2,T1,K0] 0
p[T2,T1,K1] 0
p[T2,T1,K2] 0
p[T2,T3,K0] 0
p[T2,T3,K1] 0
p[T2,T3,K2] 0
p[T2,T4,K0] 0
p[T2,T4,K1] 0
p[T2,T4,K2] 0
p[T2,T5,K0] 0
p[T2,T5,K1] 0
p[T2,T5,K2] 0
p[T2,T6,K0] 0
p[T2,T6,K1] 0
p[T2,T6,K2] 0
p[T2,D0,K0] 0
p[T2,D0,K1] 0
p[T2,D0,K2] 0
p[T2,D1,K0] 0
p[T2,D1,K1] 0
p[T2,D1,K2] 0
p[T2,S0,K0] 0
p[T2,S0,K1] 0
p[T2,S0,K2] 0
p[T2,E0,K0] 0
p[T2,E0,K1] 0
p[T2,E0,K2] 0
p[T3,T0,K0] 0
p[T3,T0,K1] 0
p[T3,T0,K2] 0
p[T3,T1,K0] 0
p[T3,T1,K1] 0
p[T3,T1,K2] 0
p[T3,T2,K0] 0
p[T3,T2,K1] 1
p[T3,T2,K2] 0
p[T3,T4,K0] 0
p[T3,T4,K1] 0
p[T3,T4,K2] 0
p[T3,T5,K0] 0
p[T3,T5,K1] 0
p[T3,T5,K2] 0
p[T3,T6,K0] 0
p[T3,T6,K1] 0
p[T3,T6,K2] 0
p[T3,D0,K0] 0
p[T3,D0,K1] 0
p[T3,D0,K2] 0
p[T3,D1,K0] 0
p[T3,D1,K1] 0
p[T3,D1,K2] 0
p[T3,S0,K0] 0
p[T3,S0,K1] 0
p[T3,S0,K2] 0
p[T3,E0,K0] 0
p[T3,E0,K1] 0
p[T3,E0,K2] 0
p[T4,T0,K0] 0
p[T4,T0,K1] 0
p[T4,T0,K2] 0
p[T4,T1,K0] 0
p[T4,T1,K1] 0
p[T4,T1,K2] 0
p[T4,T2,K0] 0
p[T4,T2,K1] 0
p[T4,T2,K2] 0
p[T4,T3,K0] 0
p[T4,T3,K1] 0
p[T4,T3,K2] 0
p[T4,T5,K0] 0
p[T4,T5,K1] 0
p[T4,T5,K2] 0
p[T4,T6,K0] 0
p[T4,T6,K1] 0
p[T4,T6,K2] 0
p[T4,D0,K0] 0
p[T4,D0,K1] 0
p[T4,D0,K2] 0
p[T4,D1,K0] 0
p[T4,D1,K1] 0
p[T4,D1,K2] 0
p[T4,S0,K0] 0
p[T4,S0,K1] 0
p[T4,S0,K2] 0
p[T4,E0,K0] 0
p[T4,E0,K1] 0
p[T4,E0,K2] 0
p[T5,T0,K0] 0
p[T5,T0,K1] 0
p[T5,T0,K2] 0
p[T5,T1,K0] 0
p[T5,T1,K1] 0
p[T5,T1,K2] 0
p[T5,T2,K0] 0
p[T5,T2,K1] 0
p[T5,T2,K2] 0
p[T5,T3,K0] 0
p[T5,T3,K1] 0
p[T5,T3,K2] 0
p[T5,T4,K0] 0
p[T5,T4,K1] 0
p[T5,T4,K2] 0
p[T5,T6,K0] 0
p[T5,T6,K1] 0
p[T5,T6,K2] 0
p[T5,D0,K0] 0
p[T5,D0,K1] 0
p[T5,D0,K2] 0
p[T5,D1,K0] 0
p[T5,D1,K1] 0
p[T5,D1,K2] 0
p[T5,S0,K0] 0
p[T5,S0,K1] 0
p[T5,S0,K2] 0
p[T5,E0,K0] 0
p[T5,E0,K1] 0
p[T5,E0,K2] 0
p[T6,T0,K0] 0
p[T6,T0,K1] 0
p[T6,T0,K2] 0
p[T6,T1,K0] 0
p[T6,T1,K1] 0
p[T6,T1,K2] 0
p[T6,T2,K0] 0
p[T6,T2,K1] 0
p[T6,T2,K2] 0
p[T6,T3,K0] 0
p[T6,T3,K1] 0
p[T6,T3,K2] 0
p[T6,T4,K0] 0
p[T6,T4,K1] 0
p[T6,T4,K2] 0
p[T6,T5,K0] 0
p[T6,T5,K1] 0
p[T6,T5,K2] 1
p[T6,D0,K0] 0
p[T6,D0,K1] 0
p[T6,D0,K2] 0
p[T6,D1,K0] 0
p[T6,D1,K1] 0
p[T6,D1,K2] 0
p[T6,S0,K0] 0
p[T6,S0,K1] 0
p[T6,S0,K2] 0
p[T6,E0,K0] 0
p[T6,E0,K1] 0
p[T6,E0,K2] 0
p[D0,T0,K0] 0
p[D0,T0,K1] 0
p[D0,T0,K2] 0
p[D0,T1,K0] 0
p[D0,T1,K1] 0
p[D0,T1,K2] 0
p[D0,T2,K0] 0
p[D0,T2,K1] 0
p[D0,T2,K2] 0
p[D0,T3,K0] 0
p[D0,T3,K1] 0
p[D0,T3,K2] 0
p[D0,T4,K0] 0
p[D0,T4,K1] 0
p[D0,T4,K2] 0
p[D0,T5,K0] 0
p[D0,T5,K1] 0
p[D0,T5,K2] 0
p[D0,T6,K0] 0
p[D0,T6,K1] 0
p[D0,T6,K2] 0
p[D0,D1,K0] 0
p[D0,D1,K1] 2
p[D0,D1,K2] 2
p[D0,S0,K0] 0
p[D0,S0,K1] 0
p[D0,S0,K2] 0
p[D0,E0,K0] 0
p[D0,E0,K1] 0
p[D0,E0,K2] 0
p[D1,T0,K0] 3
p[D1,T0,K1] 0
p[D1,T0,K2] 0
p[D1,T1,K0] 0
p[D1,T1,K1] 0
p[D1,T1,K2] 0
p[D1,T2,K0] 0
p[D1,T2,K1] 0
p[D1,T2,K2] 0
p[D1,T3,K0] 0
p[D1,T3,K1] 2
p[D1,T3,K2] 0
p[D1,T4,K0] 0
p[D1,T4,K1] 0
p[D1,T4,K2] 0
p[D1,T5,K0] 0
p[D1,T5,K1] 0
p[D1,T5,K2] 0
p[D1,T6,K0] 0
p[D1,T6,K1] 0
p[D1,T6,K2] 2
p[D1,D0,K0] 0
p[D1,D0,K1] 0
p[D1,D0,K2] 0
p[D1,S0,K0] 0
p[D1,S0,K1] 0
p[D1,S0,K2] 0
p[D1,E0,K0] 0
p[D1,E0,K1] 0
p[D1,E0,K2] 0
p[S0,T0,K0] 0
p[S0,T0,K1] 0
p[S0,T0,K2] 0
p[S0,T1,K0] 0
p[S0,T1,K1] 0
p[S0,T1,K2] 0
p[S0,T2,K0] 0
p[S0,T2,K1] 0
p[S0,T2,K2] 0
p[S0,T3,K0] 0
p[S0,T3,K1] 0
p[S0,T3,K2] 0
p[S0,T4,K0] 0
p[S0,T4,K1] 0
p[S0,T4,K2] 0
p[S0,T5,K0] 0
p[S0,T5,K1] 0
p[S0,T5,K2] 0
p[S0,T6,K0] 0
p[S0,T6,K1] 0
p[S0,T6,K2] 0
p[S0,D0,K0] 0
p[S0,D0,K1] 2
p[S0,D0,K2] 2
p[S0,D1,K0] 3
p[S0,D1,K1] 0
p[S0,D1,K2] 0
p[S0,E0,K0] 0
p[S0,E0,K1] 0
p[S0,E0,K2] 0
p[E0,T0,K0] 0
p[E0,T0,K1] 0
p[E0,T0,K2] 0
p[E0,T1,K0] 0
p[E0,T1,K1] 0
p[E0,T1,K2] 0
p[E0,T2,K0] 0
p[E0,T2,K1] 0
p[E0,T2,K2] 0
p[E0,T3,K0] 0
p[E0,T3,K1] 0
p[E0,T3,K2] 0
p[E0,T4,K0] 0
p[E0,T4,K1] 0
p[E0,T4,K2] 0
p[E0,T5,K0] 0
p[E0,T5,K1] 0
p[E0,T5,K2] 0
p[E0,T6,K0] 0
p[E0,T6,K1] 0
p[E0,T6,K2] 0
p[E0,D0,K0] 0
p[E0,D0,K1] 0
p[E0,D0,K2] 0
p[E0,D1,K0] 0
p[E0,D1,K1] 0
p[E0,D1,K2] 0
p[E0,S0,K0] 0
p[E0,S0,K1] 0
p[E0,S0,K2] 0
z 1.6887908619773293e+02
